V16 Ir16
1.0
        8.6667642593         0.0000000000         0.0000000000
       -1.4564884308         8.5435030390         0.0000000000
       -1.5239575476        -6.0281603960         6.0375192224
    V   Ir
   16   16
Direct
     0.096018000         0.227201000         0.868817000
     0.358384000         0.227201000         0.131183000
     0.848956000         0.230113000         0.618842000
     0.611271000         0.230113000         0.381158000
     0.367970000         0.500000000         0.867970000
     0.632030000         0.500000000         0.132030000
     0.116144000         0.500000000         0.616144000
     0.883856000         0.500000000         0.383856000
     0.869813000         0.000000000         0.869813000
     0.130187000         0.000000000         0.130187000
     0.620258000         0.000000000         0.620258000
     0.379742000         0.000000000         0.379742000
     0.641616000         0.772799000         0.868817000
     0.903982000         0.772799000         0.131183000
     0.388729000         0.769887000         0.618842000
     0.151044000         0.769887000         0.381158000
     0.126943000         0.383792000         0.256850000
     0.126943000         0.870093000         0.743150000
     0.877329000         0.395115000         0.018567000
     0.376548000         0.858762000         0.981433000
     0.877329000         0.858762000         0.482213000
     0.376548000         0.395115000         0.517787000
     0.627027000         0.849984000         0.222957000
     0.627027000         0.404071000         0.777043000
     0.873057000         0.129907000         0.256850000
     0.873057000         0.616208000         0.743150000
     0.623452000         0.141238000         0.018567000
     0.122671000         0.604885000         0.981433000
     0.623452000         0.604885000         0.482213000
     0.122671000         0.141238000         0.517787000
     0.372973000         0.595929000         0.222957000
     0.372973000         0.150016000         0.777043000
