Ru1 Rh4
1.0
       11.1587820053         0.0000000000         0.0000000000
       10.8266549013         2.7022138129         0.0000000000
       10.8266539310         1.3306960387         2.3518518808
   Ru   Rh
    1    4
Direct
     0.000000000         0.000000000         0.000000000
     0.601067000         0.601067000         0.601067000
     0.199809000         0.199809000         0.199809000
     0.800191000         0.800191000         0.800191000
     0.398933000         0.398933000         0.398933000
