Ir4 Os1
1.0
       11.3038587570         0.0000000000         0.0000000000
       10.9727903546         2.7157125459         0.0000000000
       10.9727905806         1.3376762768         2.3634110626
   Ir   Os
    4    1
Direct
     0.600791000         0.600791000         0.600791000
     0.199711000         0.199711000         0.199711000
     0.800289000         0.800289000         0.800289000
     0.399209000         0.399209000         0.399209000
     0.000000000         0.000000000         0.000000000
