V1 Ru4
1.0
       11.2335786819         0.0000000000         0.0000000000
       10.7751270578         2.6351502252         0.0000000000
        0.4584521411        -1.1140712568         2.3880662743
    V   Ru
    1    4
Direct
     0.000000000         0.000000000         0.000000000
     0.406688000         0.406688000         0.593312000
     0.800307000         0.800307000         0.199693000
     0.199693000         0.199693000         0.800307000
     0.593312000         0.593312000         0.406688000
