Nb6 Rh18
1.0
        5.4944043159         0.0000000000         0.0000000000
       -2.7472034252         4.7582929846         0.0000000000
        0.0000000000         0.0000000000        13.4000205994
   Nb   Rh
    6   18
Direct
     0.000000160         0.999999840         0.750005270
     0.999999880         0.000000120         0.249995730
     0.666677830         0.333322170         0.589097570
     0.333322250         0.666677750         0.410905360
     0.333322240         0.666677760         0.089089780
     0.666677760         0.333322240         0.910907300
     0.495381460         0.990758380         0.750011230
     0.495386200         0.504613800         0.750011210
     0.009242620         0.504618540         0.750011230
     0.504619640         0.009243930         0.249989970
     0.504614120         0.495385880         0.249990000
     0.990756070         0.495380360         0.249989970
     0.834011980         0.165988020         0.082498460
     0.331967770         0.165992220         0.082501250
     0.834007780         0.668032230         0.082501250
     0.165988030         0.834011970         0.917491630
     0.668032490         0.834008090         0.917488990
     0.165991910         0.331967510         0.917488990
     0.165988290         0.834011710         0.582519110
     0.668032080         0.834007100         0.582520910
     0.165992900         0.331967920         0.582520910
     0.834011740         0.165988260         0.417489620
     0.331969310         0.165992520         0.417487620
     0.834007480         0.668030690         0.417487620
