V16 Ir16
1.0
        8.6596651077         0.0000000000         0.0000000000
        1.5009664275         8.5285930587         0.0000000000
        2.1207920289         1.7801425151         6.0373668220
    V   Ir
   16   16
Direct
     0.004575000         0.264306000         0.280752000
     0.264306000         0.004575000         0.280752000
     0.757765000         0.517652000         0.262686000
     0.517652000         0.757765000         0.262686000
     0.866156000         0.133844000         0.000000000
     0.133844000         0.866156000         0.000000000
     0.614781000         0.385219000         0.000000000
     0.385219000         0.614781000         0.000000000
     0.123239000         0.373319000         0.508130000
     0.373319000         0.123239000         0.508130000
     0.876761000         0.626681000         0.491870000
     0.626681000         0.876761000         0.491870000
     0.735694000         0.995425000         0.719248000
     0.995425000         0.735694000         0.719248000
     0.482348000         0.242235000         0.737314000
     0.242235000         0.482348000         0.737314000
     0.313627000         0.313627000         0.120281000
     0.047524000         0.047524000         0.650602000
     0.827272000         0.827272000         0.090692000
     0.557500000         0.557500000         0.631146000
     0.442500000         0.442500000         0.368854000
     0.172728000         0.172728000         0.909308000
     0.952476000         0.952476000         0.349398000
     0.686373000         0.686373000         0.879719000
     0.071892000         0.569430000         0.104092000
     0.569430000         0.071892000         0.104092000
     0.800276000         0.304552000         0.641457000
     0.304552000         0.800276000         0.641457000
     0.199724000         0.695448000         0.358543000
     0.695448000         0.199724000         0.358543000
     0.928108000         0.430570000         0.895908000
     0.430570000         0.928108000         0.895908000
