V32 Ir32
1.0
        7.1075782776         0.0000000000         0.0000000000
        0.0000000000        11.1427965164         0.0000000000
        0.0000000000         0.0000000000        11.0940427780
    V   Ir
   32   32
Direct
     0.000000000         0.855775770         0.864150110
     0.000000000         0.144224230         0.135849890
     0.000000000         0.855775770         0.635849890
     0.000000000         0.144224230         0.364150110
     0.000000000         0.133214050         0.884146730
     0.000000000         0.866785960         0.115853270
     0.000000000         0.133214050         0.615853270
     0.000000000         0.866785960         0.384146730
     0.000000000         0.622526540         0.867301630
     0.000000000         0.377473460         0.132698370
     0.000000000         0.622526540         0.632698370
     0.000000000         0.377473460         0.367301630
     0.000000000         0.398295320         0.885021510
     0.000000000         0.601704680         0.114978490
     0.000000000         0.398295320         0.614978490
     0.000000000         0.601704680         0.385021510
     0.500000000         0.355775770         0.864150110
     0.500000000         0.644224230         0.135849890
     0.500000000         0.355775770         0.635849890
     0.500000000         0.644224230         0.364150110
     0.500000000         0.633214050         0.884146730
     0.500000000         0.366785960         0.115853270
     0.500000000         0.633214050         0.615853270
     0.500000000         0.366785960         0.384146730
     0.500000000         0.122526540         0.867301630
     0.500000000         0.877473460         0.132698370
     0.500000000         0.122526540         0.632698370
     0.500000000         0.877473460         0.367301630
     0.500000000         0.898295320         0.885021510
     0.500000000         0.101704680         0.114978490
     0.500000000         0.898295320         0.614978490
     0.500000000         0.101704680         0.385021510
     0.250000000         0.250000000         0.000000000
     0.750000000         0.250000000         0.000000000
     0.750000000         0.750000000         0.500000000
     0.250000000         0.750000000         0.500000000
     0.226815630         0.000000000         0.000000000
     0.226815630         0.000000000         0.500000000
     0.773184370         0.000000000         0.000000000
     0.773184370         0.000000000         0.500000000
     0.222465970         0.255599280         0.750000000
     0.222465970         0.744400720         0.250000000
     0.777534030         0.744400720         0.250000000
     0.777534030         0.255599280         0.750000000
     0.227752730         0.003135880         0.750000000
     0.227752730         0.996864120         0.250000000
     0.772247270         0.996864120         0.250000000
     0.772247270         0.003135880         0.750000000
     0.750000000         0.750000000         0.000000000
     0.250000000         0.750000000         0.000000000
     0.250000000         0.250000000         0.500000000
     0.750000000         0.250000000         0.500000000
     0.726815630         0.500000000         0.000000000
     0.726815630         0.500000000         0.500000000
     0.273184370         0.500000000         0.000000000
     0.273184370         0.500000000         0.500000000
     0.722465970         0.755599280         0.750000000
     0.722465970         0.244400720         0.250000000
     0.277534030         0.244400720         0.250000000
     0.277534030         0.755599280         0.750000000
     0.727752730         0.503135880         0.750000000
     0.727752730         0.496864120         0.250000000
     0.272247270         0.496864120         0.250000000
     0.272247270         0.503135880         0.750000000
