Nb2 Ir6
1.0
        5.5653195381         0.0000000000         0.0000000000
       -2.7826754837         4.8197012297         0.0000000000
       -0.0000053515         0.0000003433         4.4654216766
   Nb   Ir
    2    6
Direct
     0.333334340         0.666667660         0.750002000
     0.666666660         0.333334340         0.250001000
     0.163648070         0.327297170         0.250003000
     0.672703830         0.836352930         0.250002000
     0.163648740         0.836353260         0.250000000
     0.836352930         0.672704830         0.750001000
     0.327296170         0.163649070         0.750001000
     0.836352260         0.163648740         0.750003000
