Os2 Rh6
1.0
        5.4919681549         0.0000000000         0.0000000000
       -2.7459840775         4.7561839389         0.0000000000
        0.0000000000         0.0000000000         4.3843078613
   Os   Rh
    2    6
Direct
     0.333333000         0.666667000         0.750000000
     0.666667000         0.333333000         0.250000000
     0.831669000         0.168331000         0.750000000
     0.336663000         0.168331000         0.750000000
     0.831669000         0.663337000         0.750000000
     0.168331000         0.831669000         0.250000000
     0.663337000         0.831669000         0.250000000
     0.168331000         0.336663000         0.250000000
