Nb2 Rh6
1.0
        5.5236301422         0.0000000000         0.0000000000
       -2.7618157081         4.7836036565         0.0000000000
        0.0000000000         0.0000000000         4.4194087982
   Nb   Rh
    2    6
Direct
     0.666667000         0.333333000         0.250000000
     0.333333000         0.666667000         0.750000000
     0.836292620         0.163707380         0.750000000
     0.327414760         0.163707380         0.750000000
     0.836292620         0.672585240         0.750000000
     0.163707380         0.836292620         0.250000000
     0.672585240         0.836292620         0.250000000
     0.163707380         0.327414760         0.250000000
