Ru6 Rh2
1.0
        5.4113311768         0.0000000000         0.0000000000
       -2.7056642491         4.6863493888         0.0000000000
       -0.0000051357         0.0000049419         4.2854161262
   Ru   Rh
    6    2
Direct
     0.166643860         0.333291560         0.250001210
     0.666710580         0.833356360         0.250001210
     0.166644210         0.833353440         0.250003380
     0.833353380         0.666710600         0.750001240
     0.333291770         0.166646110         0.750003400
     0.833353640         0.166644720         0.750003400
     0.333335120         0.666668810         0.749999040
     0.666668440         0.333334390         0.249999120
