Ir2 Ru6
1.0
        5.4246044159         0.0000000000         0.0000000000
       -2.7123050359         4.6978342366         0.0000000000
        0.0000000000         0.0000000000         4.3079891205
   Ir   Ru
    2    6
Direct
     0.333330840         0.666665800         0.750000000
     0.666664130         0.333322790         0.250000000
     0.165815460         0.331624170         0.250000000
     0.668375740         0.834187630         0.250000000
     0.165814730         0.834192690         0.250000000
     0.834184820         0.668370580         0.750000000
     0.331618910         0.165821750         0.750000000
     0.834204370         0.165818600         0.750000000
