Ru2 Rh6
1.0
        5.4184064865         0.0000000000         0.0000000000
       -2.7092899885         4.6925283433         0.0000000000
        0.0000000000         0.0000000000         4.3241229057
   Ru   Rh
    2    6
Direct
     0.333348800         0.666664440         0.749999000
     0.666650830         0.333308720         0.249999000
     0.167594040         0.335160000         0.249999000
     0.664873870         0.832452040         0.249999000
     0.167617050         0.832442910         0.249999000
     0.832357890         0.664773560         0.749999000
     0.335184420         0.167601080         0.749999000
     0.832370110         0.167593250         0.749999000
