Os2 Ru6
1.0
        5.4304156303         0.0000000000         0.0000000000
       -2.7152068011         4.7028790250         0.0000000000
        0.0000000000         0.0000000000         4.2909822464
   Os   Ru
    2    6
Direct
     0.666664720         0.333336660         0.250000000
     0.333334890         0.666664440         0.749999000
     0.832555120         0.167444540         0.749999000
     0.334890870         0.167448160         0.749999000
     0.832551260         0.665107610         0.749999000
     0.167439560         0.832555700         0.250000000
     0.665114890         0.832549470         0.250000000
     0.167447690         0.334886420         0.250000000
