V4 Ir4
1.0
        2.7810456753         0.0000000000         0.0000000000
        0.0000000000         6.6344542503         0.0000000000
        0.0000000000        -2.9200476344         5.9572900729
    V   Ir
    4    4
Direct
     0.500000000         0.652090140         0.347909860
     0.500000000         0.374975970         0.625024030
     0.500000000         0.874798830         0.125201170
     0.500000000         0.097621110         0.902378890
     0.000000000         0.472101690         0.978923990
     0.000000000         0.021076010         0.527898310
     0.000000000         0.277434040         0.271098780
     0.000000000         0.728901220         0.722565960
