V4 Ir4
1.0
        5.2736563683         0.0000000000         0.0000000000
       -0.4138230151         5.2573949826         0.0000000000
        0.0000000000         0.0000000000         3.9601206779
    V   Ir
    4    4
Direct
     0.000000000         0.000000000         0.000000000
     0.500000000         0.500000000         0.000000000
     0.214912890         0.785087110         0.500000000
     0.785087110         0.214912890         0.500000000
     0.500000000         0.000000000         0.000000000
     0.000000000         0.500000000         0.000000000
     0.277124290         0.277124290         0.500000000
     0.722875710         0.722875710         0.500000000
