Mo2 Ir6
1.0
        5.5090250969         0.0000000000         0.0000000000
       -2.7545114363         4.7709552249         0.0000000000
        0.0000000000         0.0000000000         4.3979535103
   Mo   Ir
    2    6
Direct
     0.333333000         0.666667000         0.250000000
     0.666667000         0.333333000         0.750000000
     0.833683130         0.667365260         0.250000000
     0.166316870         0.833683130         0.750000000
     0.667365260         0.833683130         0.750000000
     0.332634740         0.166316870         0.250000000
     0.833683130         0.166316870         0.250000000
     0.166316870         0.332634740         0.750000000
