Mo2 Rh6
1.0
        5.4664778709         0.0000000000         0.0000000000
       -2.7332382202         4.7341074666         0.0000000000
        0.0000000000         0.0000000000         4.3457784653
   Mo   Rh
    2    6
Direct
     0.333333000         0.666667000         0.250000000
     0.666667000         0.333333000         0.750000000
     0.833445990         0.666890990         0.250000000
     0.166554010         0.833445990         0.750000000
     0.666890990         0.833445990         0.750000000
     0.333109010         0.166554010         0.250000000
     0.833445990         0.166554010         0.250000000
     0.166554010         0.333109010         0.750000000
