Ir6 W2
1.0
        5.5151734352         0.0000000000         0.0000000000
       -2.7575860023         4.7762790623         0.0000000000
        0.0000000000         0.0000000000         4.4091677666
   Ir    W
    6    2
Direct
     0.667547590         0.833773290         0.750000000
     0.332452410         0.166226710         0.250000000
     0.833773290         0.166226710         0.250000000
     0.166226710         0.332452410         0.750000000
     0.166226710         0.833773290         0.750000000
     0.833773290         0.667547590         0.250000000
     0.666667000         0.333333000         0.750000000
     0.333333000         0.666667000         0.250000000
