V4 Ir4
1.0
        4.0405402184         0.0000000000         0.0000000000
        0.0000000000         5.2268619537         0.0000000000
        0.0000000000         0.5336470771         5.1995486997
    V   Ir
    4    4
Direct
     0.000000000         0.025945720         0.025945720
     0.000000000         0.453425130         0.453425130
     0.500000000         0.211536110         0.211536110
     0.500000000         0.784096850         0.784096850
     0.000000000         0.963175690         0.523212200
     0.000000000         0.523212200         0.963175690
     0.500000000         0.274295710         0.714314580
     0.500000000         0.714314580         0.274295710
